LatticeConstant 1.0 Ang
%block LatticeVectors
 15.94965000 0.00000000 0.00000000
 0.00000000 17.22084000 0.00000000
 0.00000000 0.00000000 13.74555000
%endblock LatticeVectors

NumberOfAtoms 23
AtomicCoordinatesFormat Ang
%block AtomicCoordinatesAndAtomicSpecies
  6.91215000  6.99900000  5.44889000 1 #  1: C
  5.58286000  7.09629000  5.53709000 1 #  2: C
  4.96052000  8.37162000  5.64927000 1 #  3: C
  5.66330000  9.46049000  5.59422000 2 #  4: N
  6.99546000  9.30902000  5.36777000 1 #  5: C
  7.41596000  8.15850000  4.94757000 2 #  6: N
  3.57557000  8.22361000  5.85602000 2 #  7: N
  4.57316000  6.12215000  5.67180000 2 #  8: N
  3.28948000  6.79044000  5.86081000 1 #  9: C
  7.39896000  5.96912000  5.81945000 3 # 10: O
  7.72576000 10.24292000  5.56246000 3 # 11: O
  5.06441000 10.77454000  5.78465000 1 # 12: C
  8.26905000  8.10227000  3.77184000 1 # 13: C
  4.75273000  4.68942000  5.64151000 1 # 14: C
  5.42492000  4.37521000  6.46684000 4 # 15: H
  3.77586000  4.17619000  5.76786000 4 # 16: H
  5.19266000  4.38823000  4.66779000 4 # 17: H
  5.52522000 11.27559000  6.66266000 4 # 18: H
  5.23368000 11.39703000  4.88026000 4 # 19: H
  3.96895000 10.71698000  5.96149000 4 # 20: H
  8.48166000  7.05246000  3.47068000 4 # 21: H
  7.77473000  8.61335000  2.91711000 4 # 22: H
  9.23913000  8.60140000  3.98341000 4 # 23: H
%endblock AtomicCoordinatesAndAtomicSpecies

NumberOfSpecies 4
%block ChemicalSpeciesLabel
 1 6 C
 2 7 N
 3 8 O
 4 1 H
%endblock ChemicalSpeciesLabel
